NAME: dj8
TYPE: TSP
DIMENSION: 8
EDGE_WEIGHT_TYPE: EUC_2D
NODE_COORD_SECTION
1 11595.000000 43148.055600
2 11600.000000 43150.000000
3 11690.555600 42686.666700
4 11715.833300 41836.111100
5 11751.111100 42814.444400
6 11770.277800 42651.944400
7 11785.277800 42884.444400
8 11822.777800 42673.611100